NAME : traveling-santa-2018-prime-paths.32565.tour
COMMENT : Length = 32565
COMMENT : Found by LKH [Keld Helsgaun] Sun Jun 12 20:00:00 2022
TYPE : TOUR
DIMENSION : 100
TOUR_SECTION
1
54
6
89
17
32
31
26
18
86
60
49
66
30
24
12
11
91
35
75
7
77
51
38
57
42
40
16
21
48
2
55
13
78
62
69
44
90
41
22
3
5
63
79
74
9
97
29
72
88
80
27
8
92
58
67
28
81
68
71
93
33
20
43
95
37
94
52
100
73
15
53
25
4
83
98
85
39
50
45
70
36
64
46
82
23
14
87
84
34
19
76
61
56
59
10
96
99
47
65
-1
EOF
